c
c This is glucose 2.1 --  based on MiniSAT (Many thanks to MiniSAT team)
c
c WARNING: for repeatability, setting FPU to use double precision
c ========================================[ Problem Statistics ]===========================================
c |                                                                                                       |
c |  Number of variables:        233400                                                                   |
c |  Number of clauses:          536868                                                                   |
c |  Parse time:                   0.16 s                                                                 |
c |                                                                                                       |
c ========================================[ MAGIC CONSTANTS ]==============================================
c | Constants are supposed to work well together :-)                                                      |
c | however, if you find better choices, please let us known...                                           |
c |-------------------------------------------------------------------------------------------------------|
c |                                |                                |                                     |
c | - Restarts:                    | - Reduce Clause DB:            | - Minimize Asserting:               |
c |   * LBD Queue    :     50      |   * First     :   4000         |    * size <  30                     |
c |   * Trail  Queue :   5000      |   * Inc       :    300         |    * lbd  <   6                     |
c |   * K            :   0.80      |   * Special   :   1000         |                                     |
c |   * R            :   1.40      |   * Protected :  (lbd)< 30     |                                     |
c |                                |                                |                                     |
c ==================================[ Search Statistics (every  10000 conflicts) ]=========================
c |                                                                                                       |
c |          RESTARTS           |          ORIGINAL         |              LEARNT              | Progress |
c |       NB   Blocked  Avg Cfc |    Vars  Clauses Literals |   Red   Learnts    LBD2  Removed |          |
c =========================================================================================================
c |       76         0      131 |  128710   524468  1176646 |     1     8011       97     1988 | 44.854 % |
c last restart ## conflicts  :  52 673 
c =========================================================================================================
c restarts              : 127 (123 conflicts in avg)
c blocked restarts      : 0 (multiple: 0) 
c last block at restart : 0
c nb ReduceDB           : 2
c nb removed Clauses    : 6294
c nb learnts DL2        : 151
c nb learnts size 2     : 64
c nb learnts size 1     : 0
c conflicts             : 15629          (1395 /sec)
c decisions             : 315445         (0.00 % random) (28153 /sec)
c propagations          : 59687718       (5327025 /sec)
c conflict literals     : 492067         (4.20 % deleted)
c nb reduced Clauses    : 63
c CPU time              : 11.2047 s
s SATISFIABLE
